local_stuff/sygus_stuff/sygus_inv_oai/sygus_cvc5/cvc_output_2_5min/71_conf5.out
STDOUT:
(
(define-fun inv-f ((c Int) (conf_0 Int) (conf_1 Int) (conf_2 Int) (conf_3 Int) (conf_4 Int) (y Int) (z Int) (tmp Int) (c_0 Int) (c_1 Int) (c_2 Int) (c_3 Int) (c_4 Int) (conf_0_0 Int) (conf_1_0 Int) (conf_2_0 Int) (conf_3_0 Int) (conf_3_1 Int) (conf_3_2 Int) (conf_3_3 Int) (conf_3_4 Int) (conf_4_0 Int) (y_0 Int) (z_0 Int) (z_1 Int) (z_2 Int) (z_3 Int) (z_4 Int)) Bool (and (or (not (= c c_2)) (not (= conf_0 conf_0_0)) (not (= conf_1 conf_1_0)) (not (= conf_2 conf_2_0)) (not (= conf_3 conf_3_1)) (not (= conf_4 conf_4_0)) (not (= y y_0)) (not (= z z_2)) (>= c_2 36) (>= z_2 0)) (>= z 6)))
)
